TYPE : Vertex Cover
DIMENSION: 20
EDGE_DATA_SECTION:
1 6
1 13
1 17
2 18
3 4
4 12
9 14
9 19
10 12
10 18
11 12
11 14
13 16
13 19
15 17
-1
VERTEX_DEGREE:
0.0 3.0 1.0 1.0 2.0 0.0 1.0 0.0 0.0 2.0 2.0 2.0 3.0 3.0 2.0 1.0 1.0 2.0 2.0 2.0
VERTEX_COVER:
1 4 9 11 12 13 17 18
EOF
